p cnf 322 957
a 1 2 3 4 5 6 7 8 9 10 11 12 14 15 16 17 18 19 20 21 22 23 25 26 27 28 29 30 31 32 34 35 36 37 38 39 40 41 43 44 45 46 47 48 49 50 51 53 54 55 56 57 58 59 60 61 62 63 64 65 66 68 69 70 71 73 74 75 76 77 78 79 80 0
e 13 52 67 72 81 82 83 84 85 86 87 88 89 90 91 92 93 94 95 96 97 98 99 100 101 102 103 104 105 106 107 108 109 110 111 112 113 114 115 116 117 118 119 120 121 122 123 124 125 126 127 128 129 130 131 132 133 134 135 136 137 138 139 140 141 142 143 144 145 146 147 148 149 150 151 152 153 154 155 156 157 158 159 160 161 162 163 164 165 166 167 168 169 170 171 172 173 174 175 176 177 178 179 180 181 182 183 184 185 186 187 188 189 190 191 192 193 194 195 196 197 198 199 200 201 202 203 204 205 206 207 208 209 210 211 212 213 214 215 216 217 218 219 220 221 222 223 224 225 226 227 228 229 230 231 232 233 234 235 236 237 238 239 240 241 242 243 244 245 246 247 248 249 250 251 252 253 254 255 256 257 258 259 260 261 262 263 264 265 266 267 268 269 270 271 272 273 274 275 276 277 278 279 280 281 282 283 284 285 286 287 288 289 290 291 292 293 294 295 296 297 298 299 300 301 302 303 304 305 306 307 308 309 310 311 312 313 314 315 316 317 318 319 320 321 322 0
-322 0
322 -262 0
322 -297 0
322 -310 0
322 -321 0
4 3 2 -261 -320 321 0
320 -313 0
320 -316 0
320 -319 0
-318 -317 -289 -288 -287 -281 319 0
318 -305 0
318 -81 0
318 -82 0
318 -203 0
318 -99 0
318 -100 0
317 -285 0
317 -81 0
317 -82 0
317 -211 0
317 -99 0
317 -100 0
-315 -314 -242 -241 -240 -255 316 0
315 -238 0
315 -81 0
315 -82 0
315 -203 0
315 -99 0
315 -100 0
314 -267 0
314 -216 0
314 -81 0
314 -82 0
314 -99 0
314 -100 0
-312 -311 -217 -212 -207 -230 313 0
312 -205 0
312 -81 0
312 -82 0
312 -211 0
312 -99 0
312 -100 0
311 -301 0
311 -216 0
311 -81 0
311 -82 0
311 -99 0
311 -100 0
4 2 1 -261 -309 310 0
309 -300 0
309 -304 0
309 -308 0
-284 -283 -282 -307 -306 -281 308 0
307 -290 0
307 -81 0
307 -82 0
307 -98 0
307 -99 0
307 -100 0
306 -305 0
306 -142 0
306 -81 0
306 -82 0
306 -99 0
306 -100 0
-294 -293 -292 305 0
-204 -193 -192 -230 -303 -302 304 0
303 -218 0
303 -81 0
303 -82 0
303 -98 0
303 -99 0
303 -100 0
302 -301 0
302 -121 0
302 -81 0
302 -82 0
302 -99 0
302 -100 0
-233 -232 -231 301 0
-190 -143 -122 -101 -299 -298 300 0
299 -264 0
299 -121 0
299 -81 0
299 -82 0
299 -99 0
299 -100 0
298 -167 0
298 -142 0
298 -81 0
298 -82 0
298 -99 0
298 -100 0
4 3 1 -261 -296 297 0
296 -266 0
296 -270 0
296 -295 0
-294 -293 -292 -291 -286 -281 295 0
294 -132 0
294 -216 0
294 -81 0
294 -82 0
294 -99 0
294 -100 0
293 -165 0
293 -121 0
293 -81 0
293 -82 0
293 -99 0
293 -100 0
292 -160 0
292 -81 0
292 -82 0
292 -99 0
292 -100 0
291 -290 0
291 -132 0
291 -81 0
291 -82 0
291 -99 0
291 -100 0
-289 -288 -287 290 0
289 -160 0
289 -81 0
289 -82 0
289 -203 0
289 -99 0
289 -100 0
288 -121 0
288 -81 0
288 -82 0
288 -211 0
288 -99 0
288 -100 0
287 -216 0
287 -81 0
287 -82 0
287 -99 0
287 -100 0
286 -285 0
286 -165 0
286 -81 0
286 -82 0
286 -99 0
286 -100 0
-284 -283 -282 285 0
284 -216 0
284 -81 0
284 -82 0
284 -98 0
284 -99 0
284 -100 0
283 -160 0
283 -142 0
283 -81 0
283 -82 0
283 -99 0
283 -100 0
282 -121 0
282 -81 0
282 -82 0
282 -99 0
282 -100 0
281 -280 0
281 -186 0
281 -187 0
281 -188 0
281 -189 0
-279 -276 -273 280 0
279 -277 0
279 -278 0
279 -12 0
279 -11 0
-9 -13 278 0
-5 13 277 0
276 -274 0
276 -275 0
276 -15 0
276 -14 0
-6 13 275 0
-8 -13 274 0
273 -271 0
273 -272 0
273 -17 0
273 -16 0
-7 13 272 0
-10 -13 271 0
-237 -236 -235 -269 -268 -255 270 0
269 -243 0
269 -132 0
269 -81 0
269 -82 0
269 -99 0
269 -100 0
268 -267 0
268 -160 0
268 -81 0
268 -82 0
268 -99 0
268 -100 0
-258 -257 -256 267 0
-190 -265 -263 -166 -161 -156 266 0
265 -264 0
265 -160 0
265 -81 0
265 -82 0
265 -99 0
265 -100 0
-175 -174 -173 264 0
263 -144 0
263 -165 0
263 -81 0
263 -82 0
263 -99 0
263 -100 0
3 2 1 -261 -260 262 0
261 -4 0
261 -3 0
261 -2 0
261 -1 0
260 -191 0
260 -234 0
260 -259 0
-258 -257 -256 -255 -244 -239 259 0
258 -111 0
258 -81 0
258 -82 0
258 -211 0
258 -99 0
258 -100 0
257 -165 0
257 -171 0
257 -81 0
257 -82 0
257 -99 0
257 -100 0
256 -154 0
256 -81 0
256 -82 0
256 -99 0
256 -100 0
255 -254 0
255 -186 0
255 -187 0
255 -188 0
255 -189 0
-253 -250 -247 254 0
253 -251 0
253 -252 0
253 -51 0
253 -12 0
-5 52 252 0
-9 -52 251 0
250 -248 0
250 -249 0
250 -53 0
250 -15 0
-6 52 249 0
-8 -52 248 0
247 -245 0
247 -246 0
247 -54 0
247 -17 0
-7 52 246 0
-10 -52 245 0
244 -243 0
244 -111 0
244 -81 0
244 -82 0
244 -99 0
244 -100 0
-242 -241 -240 243 0
242 -165 0
242 -81 0
242 -82 0
242 -203 0
242 -99 0
242 -100 0
241 -154 0
241 -216 0
241 -81 0
241 -82 0
241 -99 0
241 -100 0
240 -81 0
240 -82 0
240 -211 0
240 -99 0
240 -100 0
239 -238 0
239 -171 0
239 -81 0
239 -82 0
239 -99 0
239 -100 0
-237 -236 -235 238 0
237 -132 0
237 -81 0
237 -82 0
237 -211 0
237 -99 0
237 -100 0
236 -160 0
236 -154 0
236 -81 0
236 -82 0
236 -99 0
236 -100 0
235 -165 0
235 -81 0
235 -82 0
235 -99 0
235 -100 0
-233 -232 -231 -230 -219 -206 234 0
233 -111 0
233 -81 0
233 -82 0
233 -203 0
233 -99 0
233 -100 0
232 -154 0
232 -142 0
232 -81 0
232 -82 0
232 -99 0
232 -100 0
231 -171 0
231 -81 0
231 -82 0
231 -99 0
231 -100 0
230 -186 0
230 -229 0
230 -187 0
230 -188 0
230 -189 0
-228 -225 -222 229 0
228 -226 0
228 -227 0
228 -51 0
228 -12 0
-5 67 227 0
-9 -67 226 0
225 -223 0
225 -224 0
225 -53 0
225 -15 0
-6 67 224 0
-8 -67 223 0
222 -220 0
222 -221 0
222 -54 0
222 -17 0
-10 -67 221 0
-7 67 220 0
219 -218 0
219 -111 0
219 -81 0
219 -82 0
219 -99 0
219 -100 0
-217 -212 -207 218 0
217 -216 0
217 -171 0
217 -81 0
217 -82 0
217 -99 0
217 -100 0
-215 -214 -213 216 0
215 -118 0
215 -119 0
215 -200 0
215 -201 0
215 -75 0
215 -64 0
215 -55 0
215 -30 0
215 -29 0
215 -28 0
215 -26 0
214 -115 0
214 -116 0
214 -197 0
214 -198 0
214 -76 0
214 -65 0
214 -58 0
214 -39 0
214 -38 0
214 -37 0
214 -35 0
213 -112 0
213 -113 0
213 -194 0
213 -195 0
213 -77 0
213 -66 0
213 -61 0
213 -48 0
213 -47 0
213 -46 0
213 -44 0
212 -142 0
212 -81 0
212 -82 0
212 -211 0
212 -99 0
212 -100 0
-210 -209 -208 211 0
210 -151 0
210 -152 0
210 -200 0
210 -201 0
210 -75 0
210 -64 0
210 -56 0
210 -55 0
210 -30 0
210 -29 0
210 -28 0
209 -148 0
209 -149 0
209 -197 0
209 -198 0
209 -76 0
209 -65 0
209 -59 0
209 -58 0
209 -39 0
209 -38 0
209 -37 0
208 -145 0
208 -146 0
208 -194 0
208 -195 0
208 -77 0
208 -66 0
208 -62 0
208 -61 0
208 -48 0
208 -47 0
208 -46 0
207 -81 0
207 -82 0
207 -203 0
207 -99 0
207 -100 0
206 -154 0
206 -205 0
206 -81 0
206 -82 0
206 -99 0
206 -100 0
-204 -193 -192 205 0
204 -81 0
204 -82 0
204 -203 0
204 -98 0
204 -99 0
204 -100 0
-202 -199 -196 203 0
202 -139 0
202 -140 0
202 -200 0
202 -201 0
202 -75 0
202 -68 0
202 -64 0
202 -56 0
202 -55 0
202 -29 0
202 -28 0
-18 72 201 0
-22 -72 200 0
199 -136 0
199 -137 0
199 -197 0
199 -198 0
199 -76 0
199 -69 0
199 -65 0
199 -59 0
199 -58 0
199 -38 0
199 -37 0
-19 72 198 0
-21 -72 197 0
196 -194 0
196 -195 0
196 -133 0
196 -134 0
196 -77 0
196 -70 0
196 -66 0
196 -62 0
196 -61 0
196 -47 0
196 -46 0
-20 72 195 0
-23 -72 194 0
193 -171 0
193 -121 0
193 -81 0
193 -82 0
193 -99 0
193 -100 0
192 -142 0
192 -81 0
192 -82 0
192 -99 0
192 -100 0
-190 -175 -174 -173 -172 -155 191 0
190 -185 0
190 -186 0
190 -187 0
190 -188 0
190 -189 0
-6 5 189 0
-9 8 188 0
-7 6 187 0
-8 10 186 0
-184 -181 -178 185 0
184 -182 0
184 -183 0
184 -78 0
184 -51 0
-5 72 183 0
-9 -72 182 0
181 -179 0
181 -180 0
181 -79 0
181 -53 0
-6 72 180 0
-8 -72 179 0
178 -176 0
178 -177 0
178 -80 0
178 -54 0
-7 72 177 0
-10 -72 176 0
175 -132 0
175 -171 0
175 -81 0
175 -82 0
175 -99 0
175 -100 0
174 -154 0
174 -81 0
174 -82 0
174 -98 0
174 -99 0
174 -100 0
173 -111 0
173 -81 0
173 -82 0
173 -99 0
173 -100 0
172 -167 0
172 -171 0
172 -81 0
172 -82 0
172 -99 0
172 -100 0
-170 -169 -168 171 0
170 -108 0
170 -109 0
170 -139 0
170 -140 0
170 -56 0
170 -55 0
170 -30 0
170 -29 0
170 -28 0
170 -27 0
170 -25 0
169 -105 0
169 -136 0
169 -137 0
169 -59 0
169 -58 0
169 -106 0
169 -39 0
169 -38 0
169 -37 0
169 -36 0
169 -34 0
168 -102 0
168 -103 0
168 -133 0
168 -134 0
168 -62 0
168 -61 0
168 -48 0
168 -47 0
168 -46 0
168 -45 0
168 -43 0
-166 -161 -156 167 0
166 -165 0
166 -81 0
166 -82 0
166 -98 0
166 -99 0
166 -100 0
-164 -163 -162 165 0
164 -129 0
164 -130 0
164 -151 0
164 -152 0
164 -68 0
164 -64 0
164 -56 0
164 -55 0
164 -29 0
164 -28 0
164 -27 0
163 -126 0
163 -127 0
163 -148 0
163 -149 0
163 -69 0
163 -65 0
163 -59 0
163 -58 0
163 -38 0
163 -37 0
163 -36 0
162 -123 0
162 -124 0
162 -145 0
162 -146 0
162 -70 0
162 -66 0
162 -62 0
162 -61 0
162 -47 0
162 -46 0
162 -45 0
161 -160 0
161 -111 0
161 -81 0
161 -82 0
161 -99 0
161 -100 0
-159 -158 -157 160 0
159 -129 0
159 -130 0
159 -118 0
159 -119 0
159 -64 0
159 -55 0
159 -30 0
159 -29 0
159 -28 0
159 -27 0
159 -26 0
158 -126 0
158 -127 0
158 -115 0
158 -116 0
158 -65 0
158 -58 0
158 -39 0
158 -38 0
158 -37 0
158 -36 0
158 -35 0
157 -123 0
157 -124 0
157 -112 0
157 -113 0
157 -66 0
157 -61 0
157 -48 0
157 -47 0
157 -46 0
157 -45 0
157 -44 0
156 -132 0
156 -81 0
156 -82 0
156 -99 0
156 -100 0
155 -144 0
155 -154 0
155 -81 0
155 -82 0
155 -99 0
155 -100 0
-153 -150 -147 154 0
153 -108 0
153 -109 0
153 -151 0
153 -152 0
153 -57 0
153 -56 0
153 -55 0
153 -30 0
153 -28 0
153 -27 0
153 -25 0
-31 52 152 0
-32 -52 151 0
150 -105 0
150 -148 0
150 -149 0
150 -60 0
150 -59 0
150 -58 0
150 -106 0
150 -39 0
150 -37 0
150 -36 0
150 -34 0
-40 52 149 0
-41 -52 148 0
147 -102 0
147 -103 0
147 -145 0
147 -146 0
147 -63 0
147 -62 0
147 -61 0
147 -48 0
147 -46 0
147 -45 0
147 -43 0
-49 52 146 0
-50 -52 145 0
-143 -122 -101 144 0
143 -132 0
143 -142 0
143 -81 0
143 -82 0
143 -99 0
143 -100 0
-141 -138 -135 142 0
141 -139 0
141 -140 0
141 -93 0
141 -96 0
141 -64 0
141 -57 0
141 -56 0
141 -55 0
141 -30 0
141 -28 0
141 -27 0
-31 67 140 0
-32 -67 139 0
138 -136 0
138 -137 0
138 -88 0
138 -89 0
138 -65 0
138 -60 0
138 -59 0
138 -58 0
138 -39 0
138 -37 0
138 -36 0
-40 67 137 0
-41 -67 136 0
135 -83 0
135 -84 0
135 -133 0
135 -134 0
135 -66 0
135 -63 0
135 -62 0
135 -61 0
135 -48 0
135 -46 0
135 -45 0
-49 67 134 0
-50 -67 133 0
-131 -128 -125 132 0
131 -129 0
131 -130 0
131 -94 0
131 -95 0
131 -71 0
131 -64 0
131 -57 0
131 -56 0
131 -55 0
131 -30 0
131 -27 0
-18 67 130 0
-22 -67 129 0
128 -126 0
128 -127 0
128 -90 0
128 -91 0
128 -73 0
128 -65 0
128 -60 0
128 -59 0
128 -58 0
128 -39 0
128 -36 0
-19 67 127 0
-21 -67 126 0
125 -123 0
125 -124 0
125 -85 0
125 -86 0
125 -74 0
125 -66 0
125 -63 0
125 -62 0
125 -61 0
125 -48 0
125 -45 0
-20 67 124 0
-23 -67 123 0
122 -111 0
122 -121 0
122 -81 0
122 -82 0
122 -99 0
122 -100 0
-120 -117 -114 121 0
120 -118 0
120 -119 0
120 -93 0
120 -96 0
120 -68 0
120 -64 0
120 -55 0
120 -29 0
120 -28 0
120 -27 0
120 -26 0
-31 13 119 0
-13 -32 118 0
117 -115 0
117 -116 0
117 -88 0
117 -89 0
117 -69 0
117 -65 0
117 -58 0
117 -38 0
117 -37 0
117 -36 0
117 -35 0
13 -40 116 0
-13 -41 115 0
114 -112 0
114 -113 0
114 -83 0
114 -84 0
114 -70 0
114 -66 0
114 -61 0
114 -47 0
114 -46 0
114 -45 0
114 -44 0
13 -49 113 0
-13 -50 112 0
-110 -107 -104 111 0
110 -108 0
110 -109 0
110 -94 0
110 -95 0
110 -71 0
110 -56 0
110 -55 0
110 -30 0
110 -29 0
110 -27 0
110 -25 0
-18 13 109 0
-13 -22 108 0
107 -105 0
107 -90 0
107 -91 0
107 -73 0
107 -59 0
107 -58 0
107 -106 0
107 -39 0
107 -38 0
107 -36 0
107 -34 0
-19 13 106 0
-13 -21 105 0
104 -102 0
104 -103 0
104 -85 0
104 -86 0
104 -74 0
104 -62 0
104 -61 0
104 -48 0
104 -47 0
104 -45 0
104 -43 0
-20 13 103 0
-13 -23 102 0
101 -81 0
101 -82 0
101 -98 0
101 -99 0
101 -100 0
-20 19 100 0
-22 21 99 0
-97 -92 -87 98 0
97 -93 0
97 -94 0
97 -95 0
97 -96 0
97 -71 0
97 -64 0
97 -56 0
97 -55 0
97 -30 0
97 -29 0
97 -27 0
-22 -52 96 0
-31 72 95 0
-32 -72 94 0
-18 52 93 0
92 -88 0
92 -89 0
92 -90 0
92 -91 0
92 -73 0
92 -65 0
92 -59 0
92 -58 0
92 -39 0
92 -38 0
92 -36 0
-40 72 91 0
-41 -72 90 0
-19 52 89 0
-21 -52 88 0
87 -83 0
87 -84 0
87 -85 0
87 -86 0
87 -74 0
87 -66 0
87 -62 0
87 -61 0
87 -48 0
87 -47 0
87 -45 0
-49 72 86 0
-50 -72 85 0
-20 52 84 0
-23 -52 83 0
-19 18 82 0
-21 23 81 0
